language Essence 1.3

letting costTC be
        function((1, 1) --> 1, (1, 2) --> 1, (2, 1) --> 1, (2, 2) --> 1, (3, 1) --> 1, (3, 2) --> 1, (4, 1) --> 1,
                 (4, 2) --> 1, (5, 1) --> 1, (5, 2) --> 1, (6, 1) --> 1, (6, 2) --> 1, (7, 1) --> 1, (7, 2) --> 1,
                 (8, 1) --> 1, (8, 2) --> 1, (9, 1) --> 1, (9, 2) --> 1, (10, 1) --> 1, (10, 2) --> 1, (11, 1) --> 1,
                 (11, 2) --> 1, (12, 1) --> 1, (12, 2) --> 1, (13, 1) --> 1, (13, 2) --> 1, (14, 1) --> 1,
                 (14, 2) --> 1, (15, 1) --> 1, (15, 2) --> 1, (16, 1) --> 1, (16, 2) --> 1, (17, 1) --> 1,
                 (17, 2) --> 1, (18, 1) --> 1, (18, 2) --> 1, (19, 1) --> 1, (19, 2) --> 1, (20, 1) --> 1,
                 (20, 2) --> 1, (21, 1) --> 1, (21, 2) --> 1, (22, 1) --> 1, (22, 2) --> 1, (23, 1) --> 1,
                 (23, 2) --> 1, (24, 1) --> 1, (24, 2) --> 1, (25, 1) --> 1, (25, 2) --> 1, (26, 1) --> 1,
                 (26, 2) --> 1, (27, 1) --> 1, (27, 2) --> 1, (28, 1) --> 1, (28, 2) --> 1, (29, 1) --> 1,
                 (29, 2) --> 1, (30, 1) --> 1, (30, 2) --> 1, (31, 1) --> 1, (31, 2) --> 1, (32, 1) --> 1,
                 (32, 2) --> 1, (33, 1) --> 1, (33, 2) --> 1, (34, 1) --> 1, (34, 2) --> 1, (35, 1) --> 1,
                 (35, 2) --> 1, (36, 1) --> 1, (36, 2) --> 1, (37, 1) --> 1, (37, 2) --> 1, (38, 1) --> 1,
                 (38, 2) --> 1, (39, 1) --> 1, (39, 2) --> 1, (40, 1) --> 1, (40, 2) --> 1, (41, 1) --> 1,
                 (41, 2) --> 1, (42, 1) --> 1, (42, 2) --> 1, (43, 1) --> 1, (43, 2) --> 1, (44, 1) --> 1,
                 (44, 2) --> 1, (45, 1) --> 1, (45, 2) --> 1)
letting costWT be
        function((1, 1) --> 1, (1, 2) --> 3, (1, 3) --> 2, (1, 4) --> 1, (1, 5) --> 1, (1, 6) --> 2, (1, 7) --> 3,
                 (1, 8) --> 2, (1, 9) --> 1, (1, 10) --> 2, (1, 11) --> 1, (1, 12) --> 1, (1, 13) --> 3, (1, 14) --> 2,
                 (1, 15) --> 1, (1, 16) --> 2, (1, 17) --> 1, (1, 18) --> 1, (1, 19) --> 2, (1, 20) --> 1,
                 (1, 21) --> 2, (1, 22) --> 2, (1, 23) --> 3, (1, 24) --> 2, (1, 25) --> 2, (1, 26) --> 1,
                 (1, 27) --> 2, (1, 28) --> 2, (1, 29) --> 1, (1, 30) --> 2, (1, 31) --> 1, (1, 32) --> 1,
                 (1, 33) --> 3, (1, 34) --> 1, (1, 35) --> 3, (1, 36) --> 1, (1, 37) --> 1, (1, 38) --> 3,
                 (1, 39) --> 2, (1, 40) --> 1, (1, 41) --> 2, (1, 42) --> 1, (1, 43) --> 1, (1, 44) --> 1,
                 (1, 45) --> 2, (2, 1) --> 2, (2, 2) --> 3, (2, 3) --> 1, (2, 4) --> 1, (2, 5) --> 1, (2, 6) --> 1,
                 (2, 7) --> 1, (2, 8) --> 2, (2, 9) --> 1, (2, 10) --> 3, (2, 11) --> 2, (2, 12) --> 3, (2, 13) --> 3,
                 (2, 14) --> 1, (2, 15) --> 1, (2, 16) --> 2, (2, 17) --> 2, (2, 18) --> 1, (2, 19) --> 1,
                 (2, 20) --> 2, (2, 21) --> 3, (2, 22) --> 3, (2, 23) --> 3, (2, 24) --> 2, (2, 25) --> 2,
                 (2, 26) --> 1, (2, 27) --> 1, (2, 28) --> 3, (2, 29) --> 3, (2, 30) --> 1, (2, 31) --> 3,
                 (2, 32) --> 2, (2, 33) --> 3, (2, 34) --> 2, (2, 35) --> 1, (2, 36) --> 3, (2, 37) --> 1,
                 (2, 38) --> 3, (2, 39) --> 3, (2, 40) --> 1, (2, 41) --> 2, (2, 42) --> 3, (2, 43) --> 1,
                 (2, 44) --> 3, (2, 45) --> 1, (3, 1) --> 3, (3, 2) --> 1, (3, 3) --> 2, (3, 4) --> 3, (3, 5) --> 2,
                 (3, 6) --> 1, (3, 7) --> 1, (3, 8) --> 1, (3, 9) --> 3, (3, 10) --> 2, (3, 11) --> 1, (3, 12) --> 2,
                 (3, 13) --> 2, (3, 14) --> 3, (3, 15) --> 1, (3, 16) --> 2, (3, 17) --> 3, (3, 18) --> 1,
                 (3, 19) --> 3, (3, 20) --> 2, (3, 21) --> 1, (3, 22) --> 3, (3, 23) --> 1, (3, 24) --> 1,
                 (3, 25) --> 1, (3, 26) --> 2, (3, 27) --> 1, (3, 28) --> 1, (3, 29) --> 2, (3, 30) --> 2,
                 (3, 31) --> 1, (3, 32) --> 3, (3, 33) --> 3, (3, 34) --> 3, (3, 35) --> 1, (3, 36) --> 2,
                 (3, 37) --> 2, (3, 38) --> 2, (3, 39) --> 3, (3, 40) --> 1, (3, 41) --> 1, (3, 42) --> 3,
                 (3, 43) --> 2, (3, 44) --> 2, (3, 45) --> 3, (4, 1) --> 3, (4, 2) --> 3, (4, 3) --> 2, (4, 4) --> 2,
                 (4, 5) --> 2, (4, 6) --> 3, (4, 7) --> 2, (4, 8) --> 3, (4, 9) --> 2, (4, 10) --> 2, (4, 11) --> 2,
                 (4, 12) --> 2, (4, 13) --> 1, (4, 14) --> 2, (4, 15) --> 3, (4, 16) --> 2, (4, 17) --> 3,
                 (4, 18) --> 3, (4, 19) --> 3, (4, 20) --> 2, (4, 21) --> 1, (4, 22) --> 1, (4, 23) --> 2,
                 (4, 24) --> 1, (4, 25) --> 3, (4, 26) --> 1, (4, 27) --> 3, (4, 28) --> 3, (4, 29) --> 1,
                 (4, 30) --> 2, (4, 31) --> 2, (4, 32) --> 3, (4, 33) --> 2, (4, 34) --> 3, (4, 35) --> 2,
                 (4, 36) --> 1, (4, 37) --> 3, (4, 38) --> 3, (4, 39) --> 2, (4, 40) --> 1, (4, 41) --> 1,
                 (4, 42) --> 1, (4, 43) --> 3, (4, 44) --> 3, (4, 45) --> 3, (5, 1) --> 2, (5, 2) --> 3, (5, 3) --> 2,
                 (5, 4) --> 2, (5, 5) --> 2, (5, 6) --> 1, (5, 7) --> 1, (5, 8) --> 1, (5, 9) --> 1, (5, 10) --> 3,
                 (5, 11) --> 2, (5, 12) --> 3, (5, 13) --> 2, (5, 14) --> 3, (5, 15) --> 3, (5, 16) --> 2,
                 (5, 17) --> 2, (5, 18) --> 2, (5, 19) --> 3, (5, 20) --> 2, (5, 21) --> 3, (5, 22) --> 2,
                 (5, 23) --> 2, (5, 24) --> 1, (5, 25) --> 2, (5, 26) --> 3, (5, 27) --> 2, (5, 28) --> 1,
                 (5, 29) --> 3, (5, 30) --> 1, (5, 31) --> 3, (5, 32) --> 1, (5, 33) --> 1, (5, 34) --> 3,
                 (5, 35) --> 3, (5, 36) --> 1, (5, 37) --> 2, (5, 38) --> 3, (5, 39) --> 2, (5, 40) --> 2,
                 (5, 41) --> 1, (5, 42) --> 3, (5, 43) --> 2, (5, 44) --> 2, (5, 45) --> 1, (6, 1) --> 3, (6, 2) --> 3,
                 (6, 3) --> 1, (6, 4) --> 3, (6, 5) --> 1, (6, 6) --> 2, (6, 7) --> 1, (6, 8) --> 2, (6, 9) --> 2,
                 (6, 10) --> 1, (6, 11) --> 1, (6, 12) --> 3, (6, 13) --> 3, (6, 14) --> 2, (6, 15) --> 1,
                 (6, 16) --> 3, (6, 17) --> 2, (6, 18) --> 1, (6, 19) --> 2, (6, 20) --> 3, (6, 21) --> 1,
                 (6, 22) --> 2, (6, 23) --> 2, (6, 24) --> 2, (6, 25) --> 3, (6, 26) --> 3, (6, 27) --> 3,
                 (6, 28) --> 2, (6, 29) --> 2, (6, 30) --> 3, (6, 31) --> 1, (6, 32) --> 1, (6, 33) --> 2,
                 (6, 34) --> 2, (6, 35) --> 2, (6, 36) --> 3, (6, 37) --> 1, (6, 38) --> 1, (6, 39) --> 2,
                 (6, 40) --> 1, (6, 41) --> 3, (6, 42) --> 3, (6, 43) --> 1, (6, 44) --> 3, (6, 45) --> 1, (7, 1) --> 1,
                 (7, 2) --> 1, (7, 3) --> 3, (7, 4) --> 3, (7, 5) --> 1, (7, 6) --> 3, (7, 7) --> 3, (7, 8) --> 3,
                 (7, 9) --> 3, (7, 10) --> 3, (7, 11) --> 1, (7, 12) --> 3, (7, 13) --> 3, (7, 14) --> 3, (7, 15) --> 3,
                 (7, 16) --> 3, (7, 17) --> 1, (7, 18) --> 2, (7, 19) --> 1, (7, 20) --> 1, (7, 21) --> 3,
                 (7, 22) --> 2, (7, 23) --> 1, (7, 24) --> 3, (7, 25) --> 2, (7, 26) --> 3, (7, 27) --> 1,
                 (7, 28) --> 3, (7, 29) --> 3, (7, 30) --> 2, (7, 31) --> 1, (7, 32) --> 2, (7, 33) --> 3,
                 (7, 34) --> 3, (7, 35) --> 2, (7, 36) --> 3, (7, 37) --> 1, (7, 38) --> 1, (7, 39) --> 2,
                 (7, 40) --> 3, (7, 41) --> 2, (7, 42) --> 1, (7, 43) --> 1, (7, 44) --> 3, (7, 45) --> 3, (8, 1) --> 3,
                 (8, 2) --> 2, (8, 3) --> 2, (8, 4) --> 1, (8, 5) --> 2, (8, 6) --> 1, (8, 7) --> 1, (8, 8) --> 3,
                 (8, 9) --> 3, (8, 10) --> 1, (8, 11) --> 3, (8, 12) --> 2, (8, 13) --> 1, (8, 14) --> 2, (8, 15) --> 2,
                 (8, 16) --> 2, (8, 17) --> 1, (8, 18) --> 1, (8, 19) --> 2, (8, 20) --> 1, (8, 21) --> 3,
                 (8, 22) --> 2, (8, 23) --> 2, (8, 24) --> 2, (8, 25) --> 2, (8, 26) --> 3, (8, 27) --> 3,
                 (8, 28) --> 1, (8, 29) --> 1, (8, 30) --> 3, (8, 31) --> 3, (8, 32) --> 3, (8, 33) --> 1,
                 (8, 34) --> 3, (8, 35) --> 2, (8, 36) --> 2, (8, 37) --> 3, (8, 38) --> 3, (8, 39) --> 2,
                 (8, 40) --> 3, (8, 41) --> 1, (8, 42) --> 2, (8, 43) --> 1, (8, 44) --> 1, (8, 45) --> 2, (9, 1) --> 3,
                 (9, 2) --> 1, (9, 3) --> 1, (9, 4) --> 2, (9, 5) --> 3, (9, 6) --> 2, (9, 7) --> 2, (9, 8) --> 1,
                 (9, 9) --> 2, (9, 10) --> 1, (9, 11) --> 3, (9, 12) --> 3, (9, 13) --> 3, (9, 14) --> 1, (9, 15) --> 1,
                 (9, 16) --> 1, (9, 17) --> 1, (9, 18) --> 3, (9, 19) --> 1, (9, 20) --> 1, (9, 21) --> 1,
                 (9, 22) --> 2, (9, 23) --> 2, (9, 24) --> 2, (9, 25) --> 3, (9, 26) --> 2, (9, 27) --> 2,
                 (9, 28) --> 3, (9, 29) --> 3, (9, 30) --> 1, (9, 31) --> 3, (9, 32) --> 1, (9, 33) --> 2,
                 (9, 34) --> 3, (9, 35) --> 1, (9, 36) --> 1, (9, 37) --> 2, (9, 38) --> 3, (9, 39) --> 2,
                 (9, 40) --> 3, (9, 41) --> 1, (9, 42) --> 3, (9, 43) --> 2, (9, 44) --> 3, (9, 45) --> 1,
                 (10, 1) --> 3, (10, 2) --> 2, (10, 3) --> 1, (10, 4) --> 2, (10, 5) --> 1, (10, 6) --> 2,
                 (10, 7) --> 1, (10, 8) --> 2, (10, 9) --> 3, (10, 10) --> 2, (10, 11) --> 3, (10, 12) --> 1,
                 (10, 13) --> 3, (10, 14) --> 1, (10, 15) --> 3, (10, 16) --> 1, (10, 17) --> 2, (10, 18) --> 2,
                 (10, 19) --> 3, (10, 20) --> 2, (10, 21) --> 3, (10, 22) --> 3, (10, 23) --> 3, (10, 24) --> 2,
                 (10, 25) --> 3, (10, 26) --> 1, (10, 27) --> 2, (10, 28) --> 3, (10, 29) --> 3, (10, 30) --> 3,
                 (10, 31) --> 2, (10, 32) --> 2, (10, 33) --> 2, (10, 34) --> 1, (10, 35) --> 2, (10, 36) --> 1,
                 (10, 37) --> 3, (10, 38) --> 1, (10, 39) --> 3, (10, 40) --> 2, (10, 41) --> 2, (10, 42) --> 3,
                 (10, 43) --> 1, (10, 44) --> 2, (10, 45) --> 1, (11, 1) --> 2, (11, 2) --> 3, (11, 3) --> 3,
                 (11, 4) --> 1, (11, 5) --> 2, (11, 6) --> 2, (11, 7) --> 3, (11, 8) --> 1, (11, 9) --> 1,
                 (11, 10) --> 3, (11, 11) --> 3, (11, 12) --> 2, (11, 13) --> 1, (11, 14) --> 3, (11, 15) --> 1,
                 (11, 16) --> 1, (11, 17) --> 2, (11, 18) --> 3, (11, 19) --> 1, (11, 20) --> 3, (11, 21) --> 3,
                 (11, 22) --> 3, (11, 23) --> 2, (11, 24) --> 1, (11, 25) --> 2, (11, 26) --> 3, (11, 27) --> 3,
                 (11, 28) --> 3, (11, 29) --> 3, (11, 30) --> 1, (11, 31) --> 2, (11, 32) --> 3, (11, 33) --> 1,
                 (11, 34) --> 2, (11, 35) --> 3, (11, 36) --> 3, (11, 37) --> 2, (11, 38) --> 1, (11, 39) --> 3,
                 (11, 40) --> 3, (11, 41) --> 2, (11, 42) --> 1, (11, 43) --> 1, (11, 44) --> 3, (11, 45) --> 2,
                 (12, 1) --> 3, (12, 2) --> 1, (12, 3) --> 3, (12, 4) --> 1, (12, 5) --> 3, (12, 6) --> 2,
                 (12, 7) --> 2, (12, 8) --> 2, (12, 9) --> 3, (12, 10) --> 2, (12, 11) --> 2, (12, 12) --> 3,
                 (12, 13) --> 1, (12, 14) --> 2, (12, 15) --> 2, (12, 16) --> 2, (12, 17) --> 3, (12, 18) --> 1,
                 (12, 19) --> 1, (12, 20) --> 1, (12, 21) --> 1, (12, 22) --> 2, (12, 23) --> 1, (12, 24) --> 1,
                 (12, 25) --> 3, (12, 26) --> 2, (12, 27) --> 1, (12, 28) --> 1, (12, 29) --> 1, (12, 30) --> 3,
                 (12, 31) --> 2, (12, 32) --> 1, (12, 33) --> 3, (12, 34) --> 1, (12, 35) --> 2, (12, 36) --> 3,
                 (12, 37) --> 3, (12, 38) --> 3, (12, 39) --> 1, (12, 40) --> 2, (12, 41) --> 2, (12, 42) --> 2,
                 (12, 43) --> 3, (12, 44) --> 1, (12, 45) --> 3, (13, 1) --> 3, (13, 2) --> 2, (13, 3) --> 2,
                 (13, 4) --> 2, (13, 5) --> 2, (13, 6) --> 1, (13, 7) --> 1, (13, 8) --> 3, (13, 9) --> 1,
                 (13, 10) --> 1, (13, 11) --> 3, (13, 12) --> 1, (13, 13) --> 2, (13, 14) --> 3, (13, 15) --> 2,
                 (13, 16) --> 2, (13, 17) --> 2, (13, 18) --> 3, (13, 19) --> 3, (13, 20) --> 2, (13, 21) --> 1,
                 (13, 22) --> 3, (13, 23) --> 2, (13, 24) --> 1, (13, 25) --> 3, (13, 26) --> 1, (13, 27) --> 1,
                 (13, 28) --> 1, (13, 29) --> 2, (13, 30) --> 2, (13, 31) --> 3, (13, 32) --> 1, (13, 33) --> 1,
                 (13, 34) --> 3, (13, 35) --> 3, (13, 36) --> 3, (13, 37) --> 2, (13, 38) --> 2, (13, 39) --> 3,
                 (13, 40) --> 1, (13, 41) --> 2, (13, 42) --> 3, (13, 43) --> 2, (13, 44) --> 2, (13, 45) --> 3,
                 (14, 1) --> 3, (14, 2) --> 3, (14, 3) --> 1, (14, 4) --> 2, (14, 5) --> 2, (14, 6) --> 2,
                 (14, 7) --> 2, (14, 8) --> 2, (14, 9) --> 2, (14, 10) --> 1, (14, 11) --> 3, (14, 12) --> 1,
                 (14, 13) --> 1, (14, 14) --> 1, (14, 15) --> 1, (14, 16) --> 1, (14, 17) --> 1, (14, 18) --> 3,
                 (14, 19) --> 2, (14, 20) --> 3, (14, 21) --> 1, (14, 22) --> 1, (14, 23) --> 2, (14, 24) --> 3,
                 (14, 25) --> 3, (14, 26) --> 1, (14, 27) --> 2, (14, 28) --> 3, (14, 29) --> 1, (14, 30) --> 1,
                 (14, 31) --> 3, (14, 32) --> 2, (14, 33) --> 3, (14, 34) --> 2, (14, 35) --> 2, (14, 36) --> 3,
                 (14, 37) --> 1, (14, 38) --> 2, (14, 39) --> 2, (14, 40) --> 2, (14, 41) --> 2, (14, 42) --> 1,
                 (14, 43) --> 3, (14, 44) --> 3, (14, 45) --> 1, (15, 1) --> 1, (15, 2) --> 1, (15, 3) --> 1,
                 (15, 4) --> 1, (15, 5) --> 3, (15, 6) --> 1, (15, 7) --> 2, (15, 8) --> 1, (15, 9) --> 1,
                 (15, 10) --> 2, (15, 11) --> 1, (15, 12) --> 3, (15, 13) --> 2, (15, 14) --> 3, (15, 15) --> 2,
                 (15, 16) --> 3, (15, 17) --> 1, (15, 18) --> 3, (15, 19) --> 2, (15, 20) --> 2, (15, 21) --> 2,
                 (15, 22) --> 2, (15, 23) --> 3, (15, 24) --> 2, (15, 25) --> 1, (15, 26) --> 2, (15, 27) --> 3,
                 (15, 28) --> 3, (15, 29) --> 2, (15, 30) --> 2, (15, 31) --> 3, (15, 32) --> 1, (15, 33) --> 3,
                 (15, 34) --> 3, (15, 35) --> 2, (15, 36) --> 2, (15, 37) --> 3, (15, 38) --> 1, (15, 39) --> 3,
                 (15, 40) --> 3, (15, 41) --> 1, (15, 42) --> 3, (15, 43) --> 1, (15, 44) --> 1, (15, 45) --> 1,
                 (16, 1) --> 1, (16, 2) --> 3, (16, 3) --> 1, (16, 4) --> 3, (16, 5) --> 2, (16, 6) --> 1,
                 (16, 7) --> 2, (16, 8) --> 2, (16, 9) --> 1, (16, 10) --> 1, (16, 11) --> 1, (16, 12) --> 2,
                 (16, 13) --> 2, (16, 14) --> 2, (16, 15) --> 1, (16, 16) --> 2, (16, 17) --> 1, (16, 18) --> 1,
                 (16, 19) --> 2, (16, 20) --> 2, (16, 21) --> 3, (16, 22) --> 2, (16, 23) --> 3, (16, 24) --> 3,
                 (16, 25) --> 3, (16, 26) --> 1, (16, 27) --> 3, (16, 28) --> 1, (16, 29) --> 2, (16, 30) --> 3,
                 (16, 31) --> 1, (16, 32) --> 1, (16, 33) --> 1, (16, 34) --> 2, (16, 35) --> 2, (16, 36) --> 1,
                 (16, 37) --> 2, (16, 38) --> 1, (16, 39) --> 1, (16, 40) --> 1, (16, 41) --> 3, (16, 42) --> 1,
                 (16, 43) --> 1, (16, 44) --> 2, (16, 45) --> 2, (17, 1) --> 3, (17, 2) --> 2, (17, 3) --> 3,
                 (17, 4) --> 2, (17, 5) --> 3, (17, 6) --> 2, (17, 7) --> 3, (17, 8) --> 2, (17, 9) --> 1,
                 (17, 10) --> 1, (17, 11) --> 1, (17, 12) --> 1, (17, 13) --> 1, (17, 14) --> 3, (17, 15) --> 2,
                 (17, 16) --> 1, (17, 17) --> 1, (17, 18) --> 2, (17, 19) --> 2, (17, 20) --> 3, (17, 21) --> 1,
                 (17, 22) --> 3, (17, 23) --> 2, (17, 24) --> 1, (17, 25) --> 3, (17, 26) --> 3, (17, 27) --> 3,
                 (17, 28) --> 3, (17, 29) --> 1, (17, 30) --> 2, (17, 31) --> 3, (17, 32) --> 1, (17, 33) --> 1,
                 (17, 34) --> 2, (17, 35) --> 2, (17, 36) --> 3, (17, 37) --> 1, (17, 38) --> 1, (17, 39) --> 3,
                 (17, 40) --> 1, (17, 41) --> 3, (17, 42) --> 2, (17, 43) --> 3, (17, 44) --> 1, (17, 45) --> 2,
                 (18, 1) --> 1, (18, 2) --> 2, (18, 3) --> 2, (18, 4) --> 3, (18, 5) --> 1, (18, 6) --> 3,
                 (18, 7) --> 3, (18, 8) --> 1, (18, 9) --> 2, (18, 10) --> 3, (18, 11) --> 3, (18, 12) --> 3,
                 (18, 13) --> 2, (18, 14) --> 2, (18, 15) --> 2, (18, 16) --> 1, (18, 17) --> 2, (18, 18) --> 1,
                 (18, 19) --> 2, (18, 20) --> 2, (18, 21) --> 3, (18, 22) --> 3, (18, 23) --> 3, (18, 24) --> 3,
                 (18, 25) --> 2, (18, 26) --> 3, (18, 27) --> 3, (18, 28) --> 3, (18, 29) --> 3, (18, 30) --> 2,
                 (18, 31) --> 3, (18, 32) --> 1, (18, 33) --> 2, (18, 34) --> 1, (18, 35) --> 1, (18, 36) --> 1,
                 (18, 37) --> 3, (18, 38) --> 2, (18, 39) --> 1, (18, 40) --> 3, (18, 41) --> 1, (18, 42) --> 1,
                 (18, 43) --> 1, (18, 44) --> 1, (18, 45) --> 3, (19, 1) --> 2, (19, 2) --> 3, (19, 3) --> 1,
                 (19, 4) --> 2, (19, 5) --> 3, (19, 6) --> 1, (19, 7) --> 1, (19, 8) --> 3, (19, 9) --> 1,
                 (19, 10) --> 1, (19, 11) --> 2, (19, 12) --> 1, (19, 13) --> 2, (19, 14) --> 1, (19, 15) --> 1,
                 (19, 16) --> 1, (19, 17) --> 3, (19, 18) --> 1, (19, 19) --> 3, (19, 20) --> 2, (19, 21) --> 2,
                 (19, 22) --> 1, (19, 23) --> 3, (19, 24) --> 3, (19, 25) --> 2, (19, 26) --> 2, (19, 27) --> 1,
                 (19, 28) --> 3, (19, 29) --> 1, (19, 30) --> 1, (19, 31) --> 2, (19, 32) --> 2, (19, 33) --> 3,
                 (19, 34) --> 3, (19, 35) --> 2, (19, 36) --> 2, (19, 37) --> 1, (19, 38) --> 3, (19, 39) --> 1,
                 (19, 40) --> 1, (19, 41) --> 3, (19, 42) --> 1, (19, 43) --> 3, (19, 44) --> 1, (19, 45) --> 2,
                 (20, 1) --> 2, (20, 2) --> 3, (20, 3) --> 3, (20, 4) --> 3, (20, 5) --> 3, (20, 6) --> 1,
                 (20, 7) --> 2, (20, 8) --> 1, (20, 9) --> 1, (20, 10) --> 1, (20, 11) --> 3, (20, 12) --> 3,
                 (20, 13) --> 2, (20, 14) --> 2, (20, 15) --> 3, (20, 16) --> 2, (20, 17) --> 1, (20, 18) --> 2,
                 (20, 19) --> 3, (20, 20) --> 1, (20, 21) --> 3, (20, 22) --> 1, (20, 23) --> 2, (20, 24) --> 3,
                 (20, 25) --> 3, (20, 26) --> 1, (20, 27) --> 3, (20, 28) --> 2, (20, 29) --> 3, (20, 30) --> 1,
                 (20, 31) --> 1, (20, 32) --> 2, (20, 33) --> 2, (20, 34) --> 2, (20, 35) --> 1, (20, 36) --> 1,
                 (20, 37) --> 1, (20, 38) --> 3, (20, 39) --> 2, (20, 40) --> 3, (20, 41) --> 3, (20, 42) --> 1,
                 (20, 43) --> 2, (20, 44) --> 1, (20, 45) --> 3, (21, 1) --> 1, (21, 2) --> 3, (21, 3) --> 1,
                 (21, 4) --> 3, (21, 5) --> 3, (21, 6) --> 2, (21, 7) --> 2, (21, 8) --> 1, (21, 9) --> 1,
                 (21, 10) --> 1, (21, 11) --> 3, (21, 12) --> 1, (21, 13) --> 3, (21, 14) --> 3, (21, 15) --> 3,
                 (21, 16) --> 3, (21, 17) --> 3, (21, 18) --> 3, (21, 19) --> 2, (21, 20) --> 1, (21, 21) --> 2,
                 (21, 22) --> 3, (21, 23) --> 1, (21, 24) --> 2, (21, 25) --> 2, (21, 26) --> 2, (21, 27) --> 2,
                 (21, 28) --> 1, (21, 29) --> 2, (21, 30) --> 2, (21, 31) --> 3, (21, 32) --> 1, (21, 33) --> 2,
                 (21, 34) --> 2, (21, 35) --> 2, (21, 36) --> 3, (21, 37) --> 2, (21, 38) --> 1, (21, 39) --> 2,
                 (21, 40) --> 3, (21, 41) --> 3, (21, 42) --> 3, (21, 43) --> 1, (21, 44) --> 1, (21, 45) --> 2,
                 (22, 1) --> 2, (22, 2) --> 1, (22, 3) --> 2, (22, 4) --> 3, (22, 5) --> 2, (22, 6) --> 2,
                 (22, 7) --> 3, (22, 8) --> 3, (22, 9) --> 3, (22, 10) --> 3, (22, 11) --> 3, (22, 12) --> 3,
                 (22, 13) --> 1, (22, 14) --> 1, (22, 15) --> 2, (22, 16) --> 1, (22, 17) --> 2, (22, 18) --> 1,
                 (22, 19) --> 1, (22, 20) --> 3, (22, 21) --> 3, (22, 22) --> 3, (22, 23) --> 3, (22, 24) --> 3,
                 (22, 25) --> 1, (22, 26) --> 1, (22, 27) --> 1, (22, 28) --> 1, (22, 29) --> 3, (22, 30) --> 2,
                 (22, 31) --> 2, (22, 32) --> 3, (22, 33) --> 2, (22, 34) --> 1, (22, 35) --> 1, (22, 36) --> 2,
                 (22, 37) --> 1, (22, 38) --> 2, (22, 39) --> 2, (22, 40) --> 1, (22, 41) --> 2, (22, 42) --> 3,
                 (22, 43) --> 1, (22, 44) --> 1, (22, 45) --> 2, (23, 1) --> 3, (23, 2) --> 2, (23, 3) --> 1,
                 (23, 4) --> 2, (23, 5) --> 3, (23, 6) --> 1, (23, 7) --> 1, (23, 8) --> 1, (23, 9) --> 3,
                 (23, 10) --> 1, (23, 11) --> 1, (23, 12) --> 3, (23, 13) --> 3, (23, 14) --> 1, (23, 15) --> 2,
                 (23, 16) --> 3, (23, 17) --> 3, (23, 18) --> 2, (23, 19) --> 3, (23, 20) --> 1, (23, 21) --> 1,
                 (23, 22) --> 1, (23, 23) --> 2, (23, 24) --> 2, (23, 25) --> 3, (23, 26) --> 3, (23, 27) --> 1,
                 (23, 28) --> 3, (23, 29) --> 3, (23, 30) --> 2, (23, 31) --> 3, (23, 32) --> 1, (23, 33) --> 2,
                 (23, 34) --> 1, (23, 35) --> 3, (23, 36) --> 2, (23, 37) --> 3, (23, 38) --> 2, (23, 39) --> 3,
                 (23, 40) --> 1, (23, 41) --> 2, (23, 42) --> 2, (23, 43) --> 2, (23, 44) --> 3, (23, 45) --> 2,
                 (24, 1) --> 3, (24, 2) --> 3, (24, 3) --> 2, (24, 4) --> 1, (24, 5) --> 2, (24, 6) --> 3,
                 (24, 7) --> 3, (24, 8) --> 1, (24, 9) --> 1, (24, 10) --> 1, (24, 11) --> 3, (24, 12) --> 3,
                 (24, 13) --> 2, (24, 14) --> 2, (24, 15) --> 2, (24, 16) --> 3, (24, 17) --> 3, (24, 18) --> 3,
                 (24, 19) --> 3, (24, 20) --> 1, (24, 21) --> 2, (24, 22) --> 2, (24, 23) --> 2, (24, 24) --> 2,
                 (24, 25) --> 3, (24, 26) --> 1, (24, 27) --> 1, (24, 28) --> 1, (24, 29) --> 1, (24, 30) --> 1,
                 (24, 31) --> 2, (24, 32) --> 2, (24, 33) --> 3, (24, 34) --> 1, (24, 35) --> 3, (24, 36) --> 1,
                 (24, 37) --> 1, (24, 38) --> 3, (24, 39) --> 3, (24, 40) --> 3, (24, 41) --> 1, (24, 42) --> 1,
                 (24, 43) --> 2, (24, 44) --> 2, (24, 45) --> 1, (25, 1) --> 1, (25, 2) --> 3, (25, 3) --> 2,
                 (25, 4) --> 2, (25, 5) --> 3, (25, 6) --> 1, (25, 7) --> 3, (25, 8) --> 2, (25, 9) --> 3,
                 (25, 10) --> 2, (25, 11) --> 1, (25, 12) --> 3, (25, 13) --> 1, (25, 14) --> 2, (25, 15) --> 2,
                 (25, 16) --> 2, (25, 17) --> 3, (25, 18) --> 3, (25, 19) --> 2, (25, 20) --> 1, (25, 21) --> 3,
                 (25, 22) --> 2, (25, 23) --> 3, (25, 24) --> 2, (25, 25) --> 2, (25, 26) --> 1, (25, 27) --> 1,
                 (25, 28) --> 3, (25, 29) --> 3, (25, 30) --> 3, (25, 31) --> 3, (25, 32) --> 1, (25, 33) --> 1,
                 (25, 34) --> 1, (25, 35) --> 1, (25, 36) --> 3, (25, 37) --> 2, (25, 38) --> 2, (25, 39) --> 2,
                 (25, 40) --> 2, (25, 41) --> 2, (25, 42) --> 3, (25, 43) --> 2, (25, 44) --> 1, (25, 45) --> 1,
                 (26, 1) --> 2, (26, 2) --> 2, (26, 3) --> 2, (26, 4) --> 2, (26, 5) --> 3, (26, 6) --> 1,
                 (26, 7) --> 3, (26, 8) --> 3, (26, 9) --> 3, (26, 10) --> 1, (26, 11) --> 2, (26, 12) --> 3,
                 (26, 13) --> 2, (26, 14) --> 1, (26, 15) --> 1, (26, 16) --> 1, (26, 17) --> 2, (26, 18) --> 3,
                 (26, 19) --> 1, (26, 20) --> 3, (26, 21) --> 3, (26, 22) --> 2, (26, 23) --> 3, (26, 24) --> 3,
                 (26, 25) --> 2, (26, 26) --> 3, (26, 27) --> 3, (26, 28) --> 2, (26, 29) --> 2, (26, 30) --> 3,
                 (26, 31) --> 1, (26, 32) --> 2, (26, 33) --> 3, (26, 34) --> 2, (26, 35) --> 1, (26, 36) --> 2,
                 (26, 37) --> 3, (26, 38) --> 2, (26, 39) --> 1, (26, 40) --> 3, (26, 41) --> 2, (26, 42) --> 2,
                 (26, 43) --> 2, (26, 44) --> 1, (26, 45) --> 1, (27, 1) --> 1, (27, 2) --> 3, (27, 3) --> 3,
                 (27, 4) --> 1, (27, 5) --> 2, (27, 6) --> 3, (27, 7) --> 1, (27, 8) --> 2, (27, 9) --> 1,
                 (27, 10) --> 3, (27, 11) --> 1, (27, 12) --> 3, (27, 13) --> 2, (27, 14) --> 1, (27, 15) --> 2,
                 (27, 16) --> 3, (27, 17) --> 2, (27, 18) --> 2, (27, 19) --> 2, (27, 20) --> 2, (27, 21) --> 3,
                 (27, 22) --> 2, (27, 23) --> 1, (27, 24) --> 1, (27, 25) --> 1, (27, 26) --> 1, (27, 27) --> 1,
                 (27, 28) --> 3, (27, 29) --> 2, (27, 30) --> 3, (27, 31) --> 1, (27, 32) --> 3, (27, 33) --> 3,
                 (27, 34) --> 2, (27, 35) --> 2, (27, 36) --> 3, (27, 37) --> 1, (27, 38) --> 3, (27, 39) --> 3,
                 (27, 40) --> 2, (27, 41) --> 1, (27, 42) --> 3, (27, 43) --> 2, (27, 44) --> 1, (27, 45) --> 3,
                 (28, 1) --> 3, (28, 2) --> 1, (28, 3) --> 1, (28, 4) --> 1, (28, 5) --> 3, (28, 6) --> 2,
                 (28, 7) --> 1, (28, 8) --> 2, (28, 9) --> 3, (28, 10) --> 2, (28, 11) --> 1, (28, 12) --> 1,
                 (28, 13) --> 1, (28, 14) --> 3, (28, 15) --> 2, (28, 16) --> 2, (28, 17) --> 3, (28, 18) --> 3,
                 (28, 19) --> 2, (28, 20) --> 3, (28, 21) --> 1, (28, 22) --> 2, (28, 23) --> 3, (28, 24) --> 2,
                 (28, 25) --> 3, (28, 26) --> 2, (28, 27) --> 1, (28, 28) --> 3, (28, 29) --> 2, (28, 30) --> 3,
                 (28, 31) --> 3, (28, 32) --> 1, (28, 33) --> 2, (28, 34) --> 1, (28, 35) --> 2, (28, 36) --> 1,
                 (28, 37) --> 3, (28, 38) --> 2, (28, 39) --> 1, (28, 40) --> 1, (28, 41) --> 2, (28, 42) --> 3,
                 (28, 43) --> 3, (28, 44) --> 2, (28, 45) --> 1, (29, 1) --> 3, (29, 2) --> 2, (29, 3) --> 3,
                 (29, 4) --> 1, (29, 5) --> 3, (29, 6) --> 1, (29, 7) --> 3, (29, 8) --> 2, (29, 9) --> 2,
                 (29, 10) --> 1, (29, 11) --> 1, (29, 12) --> 2, (29, 13) --> 3, (29, 14) --> 1, (29, 15) --> 1,
                 (29, 16) --> 1, (29, 17) --> 1, (29, 18) --> 3, (29, 19) --> 3, (29, 20) --> 1, (29, 21) --> 1,
                 (29, 22) --> 3, (29, 23) --> 3, (29, 24) --> 3, (29, 25) --> 1, (29, 26) --> 3, (29, 27) --> 2,
                 (29, 28) --> 1, (29, 29) --> 1, (29, 30) --> 1, (29, 31) --> 2, (29, 32) --> 1, (29, 33) --> 1,
                 (29, 34) --> 3, (29, 35) --> 2, (29, 36) --> 1, (29, 37) --> 3, (29, 38) --> 2, (29, 39) --> 1,
                 (29, 40) --> 1, (29, 41) --> 2, (29, 42) --> 2, (29, 43) --> 2, (29, 44) --> 2, (29, 45) --> 3,
                 (30, 1) --> 2, (30, 2) --> 3, (30, 3) --> 1, (30, 4) --> 1, (30, 5) --> 1, (30, 6) --> 1,
                 (30, 7) --> 1, (30, 8) --> 2, (30, 9) --> 1, (30, 10) --> 2, (30, 11) --> 2, (30, 12) --> 3,
                 (30, 13) --> 1, (30, 14) --> 2, (30, 15) --> 2, (30, 16) --> 3, (30, 17) --> 1, (30, 18) --> 2,
                 (30, 19) --> 1, (30, 20) --> 1, (30, 21) --> 2, (30, 22) --> 3, (30, 23) --> 3, (30, 24) --> 2,
                 (30, 25) --> 3, (30, 26) --> 1, (30, 27) --> 2, (30, 28) --> 1, (30, 29) --> 3, (30, 30) --> 2,
                 (30, 31) --> 2, (30, 32) --> 3, (30, 33) --> 3, (30, 34) --> 1, (30, 35) --> 1, (30, 36) --> 2,
                 (30, 37) --> 3, (30, 38) --> 1, (30, 39) --> 2, (30, 40) --> 1, (30, 41) --> 2, (30, 42) --> 3,
                 (30, 43) --> 2, (30, 44) --> 3, (30, 45) --> 2, (31, 1) --> 1, (31, 2) --> 1, (31, 3) --> 1,
                 (31, 4) --> 3, (31, 5) --> 2, (31, 6) --> 3, (31, 7) --> 1, (31, 8) --> 2, (31, 9) --> 1,
                 (31, 10) --> 1, (31, 11) --> 1, (31, 12) --> 2, (31, 13) --> 1, (31, 14) --> 2, (31, 15) --> 1,
                 (31, 16) --> 3, (31, 17) --> 2, (31, 18) --> 2, (31, 19) --> 2, (31, 20) --> 1, (31, 21) --> 1,
                 (31, 22) --> 1, (31, 23) --> 2, (31, 24) --> 3, (31, 25) --> 2, (31, 26) --> 2, (31, 27) --> 1,
                 (31, 28) --> 2, (31, 29) --> 3, (31, 30) --> 2, (31, 31) --> 2, (31, 32) --> 3, (31, 33) --> 1,
                 (31, 34) --> 3, (31, 35) --> 2, (31, 36) --> 2, (31, 37) --> 2, (31, 38) --> 2, (31, 39) --> 3,
                 (31, 40) --> 2, (31, 41) --> 1, (31, 42) --> 3, (31, 43) --> 2, (31, 44) --> 2, (31, 45) --> 1)
letting demand be function(1 --> 16, 2 --> 24)
letting maxCost be 24
letting n_customer be 2
letting n_transshipment be 45
letting n_warehouses be 31
letting stock be
        function(1 --> 45, 2 --> 45, 3 --> 45, 4 --> 45, 5 --> 45, 6 --> 45, 7 --> 45, 8 --> 45, 9 --> 45, 10 --> 45,
                 11 --> 45, 12 --> 45, 13 --> 45, 14 --> 45, 15 --> 45, 16 --> 45, 17 --> 45, 18 --> 45, 19 --> 45,
                 20 --> 45, 21 --> 45, 22 --> 45, 23 --> 45, 24 --> 45, 25 --> 45, 26 --> 45, 27 --> 45, 28 --> 45,
                 29 --> 45, 30 --> 45, 31 --> 45)
